n_machines = 5;
n_resources = 10;
n_jobs = 50;
horizon = 228;
LB = 45;
n_jobs_per_resource = [5, 5, 5, 5, 5, 5, 5, 5, 5, 5];
duration = [8, 2, 2, 8, 9, 9, 7, 4, 6, 9, 3, 3, 8, 5, 4, 7, 3, 1, 2, 5, 9, 4, 1, 2, 7, 4, 4, 2, 1, 9, 8, 6, 3, 1, 6, 4, 6, 4, 2, 7, 5, 1, 2, 5, 1, 1, 4, 4, 6, 4]